Name = "inst04";
Distances = [|
	0, 56, 86, 77, 81, 129, 117, 164, 71, 94, 53, |
	56, 0, 81, 31, 63, 87, 61, 108, 37, 37, 24, |
	86, 81, 0, 130, 17, 43, 111, 68, 43, 70, 56, |
	87, 31, 110, 0, 93, 116, 30, 77, 67, 40, 84, |
	81, 63, 17, 93, 0, 47, 94, 82, 26, 53, 38, |
	129, 87, 43, 116, 47, 0, 117, 52, 58, 76, 75, |
	117, 61, 111, 30, 94, 117, 0, 65, 68, 41, 63, |
	164, 108, 78, 77, 82, 52, 65, 0, 93, 70, 110, |
	71, 47, 43, 67, 26, 98, 68, 93, 0, 26, 17, |
	94, 37, 70, 40, 53, 76, 41, 70, 26, 0, 40, |
	53, 24, 56, 54, 38, 75, 63, 110, 17, 40, 0, |
|];
Demand = [10,25,18,16,14,16,24,19, 23, 19];
Capacity = [200,180,160,185,180,200,160,200];
